p tw 28 202
0 1
0 2
0 3
0 18
0 20
0 26
0 21
0 22
0 5
0 12
0 14
0 15
0 9
0 23
0 19
0 6
0 17
0 13
0 10
1 2
1 3
1 6
1 8
1 20
1 17
1 21
1 5
1 4
1 9
1 12
1 13
1 14
1 27
1 23
1 16
2 10
2 15
2 20
2 22
2 11
2 12
2 23
2 4
2 3
2 25
2 13
2 26
2 17
2 19
3 4
3 5
3 6
3 8
3 9
3 18
3 14
3 16
3 21
3 27
3 25
3 11
3 19
4 5
4 6
4 7
4 8
4 17
4 24
4 12
4 16
4 22
4 21
4 27
4 9
4 23
4 10
4 11
5 6
5 12
5 17
5 19
5 11
5 16
5 21
5 14
5 15
5 27
5 10
5 25
5 7
6 7
6 12
6 9
6 24
6 14
6 17
6 19
6 27
6 21
6 26
6 11
6 15
7 10
7 11
7 22
7 8
7 23
7 27
7 21
7 15
7 20
8 9
8 10
8 11
8 17
8 20
8 23
8 27
8 12
8 26
8 15
8 21
8 16
9 10
9 13
9 22
9 25
9 15
9 23
9 12
9 17
9 21
10 11
10 13
10 15
10 22
10 23
10 24
10 25
11 16
11 22
11 25
11 12
11 23
11 26
11 19
11 15
11 21
11 24
12 23
12 24
12 16
12 18
12 26
12 13
12 15
12 14
13 21
13 22
13 15
13 26
13 17
14 15
14 16
14 27
14 17
15 16
15 23
15 27
15 21
15 26
15 22
15 18
16 27
17 19
17 21
17 20
17 26
17 18
17 25
18 26
18 20
18 27
18 25
18 22
19 27
19 20
20 26
20 22
20 27
20 21
20 23
21 22
21 23
21 26
21 27
21 24
22 25
22 24
23 24
23 26
25 27
